50

98 15 258
96 7 543
95 3 248
94 21 563
92 10 538
89 14 401
88 25 435
88 23 435
87 12 683
87 7 702
86 11 347
85 22 351
83 10 242
80 3 630
80 4 341
77 24 385
76 8 493
76 22 605
73 10 695
72 7 419
71 15 516
69 14 695
69 14 667
69 9 635
57 16 724
57 8 342
53 8 562
50 14 634
45 6 546
45 12 419
44 8 434
44 2 253
43 11 706
42 8 388
37 8 688
36 2 495
36 1 254
35 7 583
35 11 581
34 1 350
33 4 638
31 9 316
30 5 667
27 9 373
24 5 355
24 7 444
23 7 670
21 4 276
20 2 279
20 4 738
